data/OOEBPP/R1000/BPP_1000_100_0.1_0.7_4.txt.ins
1000
100 100
1 70 851
2 70 111
3 70 784
4 70 240
5 70 631
6 70 692
7 70 559
8 70 490
9 70 337
10 70 134
11 70 796
12 69 557
13 69 283
14 69 298
15 69 449
16 69 744
17 69 470
18 69 148
19 69 906
20 69 858
21 69 856
22 69 233
23 69 484
24 69 187
25 69 954
26 69 78
27 69 822
28 69 137
29 69 426
30 69 748
31 69 30
32 69 313
33 69 302
34 68 972
35 68 167
36 68 392
37 68 99
38 68 479
39 68 799
40 68 313
41 68 854
42 68 412
43 68 145
44 68 239
45 68 234
46 67 382
47 67 296
48 67 934
49 67 771
50 67 463
51 67 703
52 67 806
53 67 742
54 67 298
55 67 598
56 67 136
57 67 156
58 67 670
59 67 109
60 67 306
61 66 741
62 66 506
63 66 572
64 66 548
65 66 215
66 66 927
67 66 258
68 66 792
69 66 34
70 66 783
71 66 603
72 66 554
73 66 279
74 66 822
75 66 175
76 65 14
77 65 316
78 65 797
79 65 71
80 65 583
81 65 726
82 65 494
83 65 320
84 65 27
85 65 357
86 65 167
87 65 307
88 65 576
89 65 590
90 65 377
91 65 572
92 65 149
93 65 904
94 65 159
95 65 623
96 65 413
97 65 107
98 65 201
99 64 206
100 64 119
101 64 288
102 64 356
103 64 407
104 64 282
105 64 496
106 64 430
107 64 637
108 64 421
109 64 557
110 64 396
111 64 696
112 64 811
113 64 173
114 64 601
115 64 772
116 64 245
117 64 87
118 63 224
119 63 559
120 63 411
121 63 963
122 63 571
123 63 200
124 63 980
125 63 21
126 63 471
127 63 234
128 63 430
129 63 36
130 62 194
131 62 875
132 62 876
133 62 35
134 62 233
135 62 173
136 62 911
137 62 100
138 62 725
139 62 494
140 62 626
141 62 784
142 62 226
143 62 874
144 62 789
145 62 441
146 62 421
147 62 284
148 62 294
149 62 172
150 62 708
151 62 204
152 62 574
153 62 901
154 61 336
155 61 875
156 61 250
157 61 624
158 61 180
159 61 194
160 61 284
161 61 912
162 61 807
163 61 766
164 61 376
165 61 724
166 61 108
167 61 350
168 61 692
169 61 16
170 61 53
171 61 863
172 61 990
173 60 739
174 60 482
175 60 908
176 60 11
177 60 872
178 60 961
179 60 813
180 60 609
181 60 788
182 60 908
183 60 699
184 60 29
185 60 486
186 60 680
187 60 767
188 60 50
189 60 610
190 60 257
191 60 696
192 60 692
193 60 249
194 60 974
195 59 338
196 59 31
197 59 816
198 59 495
199 59 269
200 58 920
201 58 244
202 58 841
203 58 784
204 58 234
205 58 605
206 58 18
207 58 303
208 58 267
209 58 455
210 58 294
211 58 444
212 58 281
213 58 844
214 57 207
215 57 630
216 57 668
217 57 133
218 57 333
219 57 36
220 57 363
221 57 889
222 57 810
223 57 809
224 57 979
225 57 585
226 57 602
227 57 222
228 57 5
229 57 274
230 57 631
231 57 816
232 57 577
233 57 902
234 57 250
235 57 712
236 56 704
237 56 892
238 56 761
239 56 178
240 56 712
241 56 374
242 56 499
243 56 460
244 56 390
245 56 283
246 56 641
247 55 618
248 55 94
249 55 178
250 55 247
251 55 953
252 55 305
253 55 595
254 55 112
255 55 962
256 55 445
257 55 923
258 55 591
259 55 672
260 55 40
261 54 229
262 54 962
263 54 819
264 54 408
265 54 285
266 54 571
267 54 997
268 54 883
269 54 28
270 54 562
271 54 172
272 54 458
273 54 837
274 54 125
275 54 951
276 54 196
277 54 387
278 54 370
279 54 772
280 53 592
281 53 383
282 53 210
283 53 238
284 53 477
285 53 88
286 53 765
287 53 714
288 53 200
289 53 619
290 53 428
291 53 529
292 53 790
293 52 196
294 52 782
295 52 377
296 52 714
297 52 82
298 52 78
299 52 323
300 52 285
301 52 775
302 52 538
303 52 57
304 52 723
305 52 305
306 52 529
307 52 507
308 52 531
309 52 632
310 52 171
311 52 140
312 52 569
313 52 213
314 51 571
315 51 997
316 51 569
317 51 124
318 51 83
319 51 806
320 51 240
321 51 142
322 51 151
323 51 591
324 51 930
325 51 345
326 51 205
327 50 877
328 50 915
329 50 788
330 50 464
331 50 932
332 50 876
333 50 555
334 50 872
335 50 453
336 50 356
337 50 389
338 50 985
339 50 263
340 50 6
341 49 26
342 49 311
343 49 878
344 49 336
345 49 504
346 49 753
347 49 732
348 49 908
349 49 795
350 49 816
351 49 321
352 49 908
353 49 535
354 49 889
355 49 186
356 49 621
357 48 834
358 48 257
359 48 693
360 48 73
361 48 440
362 48 812
363 48 342
364 48 44
365 48 777
366 48 574
367 48 318
368 48 566
369 48 737
370 48 137
371 48 811
372 48 79
373 48 783
374 48 506
375 47 288
376 47 748
377 47 484
378 47 269
379 47 687
380 47 761
381 47 5
382 47 185
383 47 956
384 47 157
385 47 842
386 47 944
387 47 179
388 47 397
389 47 961
390 47 137
391 47 31
392 46 770
393 46 312
394 46 293
395 46 254
396 46 304
397 46 73
398 46 473
399 46 713
400 46 197
401 46 480
402 46 705
403 46 963
404 46 5
405 46 933
406 46 720
407 46 487
408 46 155
409 45 106
410 45 840
411 45 905
412 45 981
413 45 98
414 45 362
415 45 783
416 45 730
417 45 911
418 45 747
419 45 282
420 45 190
421 45 85
422 45 132
423 45 609
424 45 281
425 45 325
426 45 479
427 45 877
428 45 427
429 45 868
430 45 305
431 44 727
432 44 743
433 44 414
434 44 581
435 44 950
436 44 12
437 44 638
438 44 374
439 44 439
440 44 757
441 44 206
442 44 515
443 44 626
444 44 601
445 44 810
446 44 100
447 43 728
448 43 704
449 43 662
450 43 165
451 43 550
452 43 426
453 43 357
454 43 627
455 43 612
456 43 725
457 43 469
458 43 572
459 43 916
460 43 533
461 43 85
462 43 707
463 43 229
464 43 475
465 43 143
466 43 624
467 43 899
468 43 79
469 43 9
470 43 28
471 42 475
472 42 661
473 42 529
474 42 292
475 42 5
476 42 112
477 42 417
478 42 386
479 42 161
480 42 350
481 42 821
482 42 314
483 41 518
484 41 356
485 41 391
486 41 709
487 41 356
488 41 28
489 41 312
490 41 772
491 41 715
492 40 468
493 40 41
494 40 157
495 40 255
496 40 48
497 40 600
498 40 60
499 40 514
500 40 92
501 40 646
502 40 295
503 40 240
504 40 218
505 40 309
506 40 660
507 39 960
508 39 939
509 39 655
510 39 117
511 39 12
512 39 862
513 39 650
514 39 734
515 39 66
516 39 674
517 39 282
518 39 561
519 39 231
520 39 672
521 39 808
522 39 660
523 39 160
524 38 166
525 38 24
526 38 352
527 38 905
528 38 137
529 38 249
530 38 530
531 38 539
532 38 207
533 38 89
534 38 398
535 38 52
536 38 104
537 38 477
538 38 688
539 37 15
540 37 251
541 37 912
542 37 408
543 37 150
544 37 312
545 37 566
546 37 180
547 37 706
548 37 607
549 37 556
550 36 892
551 36 265
552 36 195
553 36 217
554 36 744
555 36 43
556 36 636
557 36 866
558 36 496
559 36 62
560 35 408
561 35 330
562 35 556
563 35 657
564 35 475
565 35 58
566 35 4
567 35 367
568 35 32
569 35 835
570 35 65
571 35 780
572 35 105
573 35 630
574 35 365
575 34 876
576 34 362
577 34 898
578 34 569
579 34 298
580 34 260
581 34 419
582 34 540
583 34 584
584 34 762
585 34 998
586 34 271
587 34 502
588 34 313
589 34 547
590 34 272
591 34 911
592 34 16
593 34 830
594 34 338
595 33 87
596 33 962
597 33 901
598 33 38
599 33 813
600 33 200
601 33 112
602 33 263
603 33 160
604 33 568
605 33 727
606 33 487
607 33 118
608 33 75
609 33 766
610 33 169
611 32 85
612 32 526
613 32 635
614 32 107
615 32 487
616 32 862
617 32 286
618 32 886
619 32 322
620 32 383
621 32 990
622 32 957
623 32 59
624 32 707
625 32 571
626 32 164
627 32 719
628 32 949
629 32 514
630 32 870
631 32 876
632 32 748
633 32 486
634 32 361
635 32 813
636 32 859
637 32 833
638 32 553
639 32 928
640 32 560
641 32 871
642 32 892
643 31 0
644 31 771
645 31 607
646 31 404
647 31 905
648 31 736
649 31 225
650 31 520
651 31 736
652 31 396
653 31 941
654 31 943
655 31 128
656 31 171
657 31 844
658 31 609
659 31 125
660 31 772
661 31 206
662 30 522
663 30 741
664 30 842
665 30 200
666 30 515
667 30 945
668 30 571
669 30 312
670 30 142
671 30 133
672 30 358
673 30 672
674 29 923
675 29 490
676 29 633
677 29 595
678 29 680
679 29 144
680 29 577
681 29 727
682 29 750
683 29 763
684 29 900
685 29 997
686 29 232
687 29 201
688 29 829
689 29 929
690 28 879
691 28 472
692 28 284
693 28 853
694 28 743
695 28 356
696 28 967
697 28 411
698 28 77
699 28 202
700 28 148
701 28 989
702 28 649
703 28 666
704 28 516
705 28 392
706 28 130
707 28 451
708 27 962
709 27 911
710 27 990
711 27 809
712 27 348
713 27 396
714 27 86
715 27 821
716 27 672
717 27 426
718 27 744
719 27 695
720 27 834
721 27 599
722 27 541
723 27 99
724 27 700
725 27 525
726 27 369
727 27 33
728 27 169
729 27 68
730 26 95
731 26 663
732 26 319
733 26 81
734 26 583
735 26 155
736 26 197
737 26 815
738 26 73
739 26 254
740 26 720
741 26 862
742 26 504
743 26 749
744 26 885
745 26 102
746 25 876
747 25 276
748 25 718
749 25 645
750 25 595
751 25 512
752 25 344
753 25 59
754 25 776
755 25 183
756 25 112
757 25 568
758 25 254
759 25 215
760 25 84
761 25 885
762 25 8
763 25 35
764 25 286
765 24 624
766 24 226
767 24 184
768 24 954
769 24 288
770 24 521
771 24 283
772 24 96
773 24 148
774 24 588
775 24 85
776 24 231
777 24 296
778 24 689
779 24 226
780 23 638
781 23 337
782 23 767
783 23 71
784 23 309
785 23 911
786 23 316
787 23 967
788 23 605
789 23 113
790 23 612
791 23 374
792 23 230
793 23 43
794 23 397
795 23 196
796 23 435
797 22 341
798 22 132
799 22 222
800 22 915
801 22 323
802 22 380
803 22 813
804 22 334
805 22 164
806 22 29
807 22 876
808 22 312
809 22 909
810 22 487
811 22 163
812 22 590
813 21 422
814 21 380
815 21 922
816 21 90
817 21 436
818 21 785
819 21 955
820 21 699
821 21 680
822 21 228
823 21 420
824 21 665
825 21 300
826 21 437
827 21 715
828 21 361
829 21 422
830 20 590
831 20 591
832 20 865
833 20 471
834 20 667
835 20 989
836 20 888
837 20 328
838 20 522
839 20 149
840 20 639
841 20 893
842 20 681
843 20 848
844 20 423
845 20 742
846 20 891
847 20 666
848 20 557
849 19 816
850 19 675
851 19 178
852 19 428
853 19 184
854 19 735
855 19 943
856 19 907
857 19 769
858 19 667
859 19 689
860 19 848
861 19 367
862 19 567
863 18 873
864 18 530
865 18 53
866 18 450
867 18 68
868 18 54
869 18 135
870 18 146
871 18 844
872 18 184
873 18 541
874 18 26
875 18 787
876 18 188
877 18 591
878 18 24
879 18 842
880 18 58
881 17 585
882 17 509
883 17 666
884 17 345
885 17 661
886 17 431
887 17 403
888 17 66
889 17 387
890 17 60
891 17 57
892 17 364
893 17 992
894 17 487
895 17 474
896 17 689
897 16 748
898 16 505
899 16 837
900 16 955
901 16 780
902 16 37
903 16 940
904 16 626
905 16 863
906 16 751
907 16 162
908 16 98
909 16 137
910 16 905
911 16 758
912 15 671
913 15 522
914 15 238
915 15 146
916 15 109
917 15 774
918 15 477
919 15 901
920 15 882
921 15 19
922 15 36
923 15 824
924 15 437
925 15 62
926 15 808
927 15 609
928 14 878
929 14 742
930 14 29
931 14 449
932 14 669
933 14 892
934 14 130
935 14 62
936 14 691
937 14 589
938 14 628
939 14 498
940 14 99
941 14 158
942 14 935
943 14 627
944 13 963
945 13 627
946 13 955
947 13 554
948 13 842
949 13 345
950 13 967
951 13 937
952 13 157
953 13 57
954 13 231
955 13 593
956 13 624
957 12 477
958 12 925
959 12 666
960 12 472
961 12 460
962 12 741
963 12 536
964 12 209
965 12 395
966 12 442
967 12 281
968 12 116
969 12 382
970 12 907
971 12 429
972 11 113
973 11 654
974 11 468
975 11 251
976 11 724
977 11 210
978 11 723
979 11 636
980 11 370
981 11 949
982 11 781
983 10 698
984 10 631
985 10 497
986 10 105
987 10 893
988 10 215
989 10 486
990 10 396
991 10 833
992 10 900
993 10 866
994 10 116
995 10 846
996 10 898
997 10 711
998 10 291
999 10 842
1000 10 637
