results/OOEBPP/BPP_1000_100_0.1_0.7_4.txt.ins.log
248,247.93,279.465,OPT,13485,0,0,AI,0,0.0362903,3.54839,1.16707,275.277,0,2,0,192,191
